# Solution for model count
# Objective value = 10
z#1 0
z#2 1
z#3 0
z#4 0
z#5 1
z#6 0
z#7 0
z#8 1
z#9 0
z#10 0
z#11 0
z#12 0
z#13 1
z#14 1
z#15 1
z#16 0
z#17 0
z#18 0
z#19 1
z#20 1
z#21 1
z#22 0
z#23 1
z#24 0
x#24 0
x#23 527
x#22 0
x#21 1143
x#20 596
x#19 344
x#18 0
x#17 0
x#16 0
x#15 432
x#14 557
x#13 1259
x#12 0
x#11 0
x#10 0
x#9 0
x#8 2011
x#7 0
x#6 0
x#5 992
x#4 0
x#3 0
x#2 2139
x#1 0
